80 8873
280
476
168
315
109
375
157
202
478
438
387
67
305
79
272
458
128
225
281
195
463
146
458
65
341
409
74
196
87
307
407
424
390
266
127
317
126
372
467
354
467
418
436
365
178
226
102
398
484
90
192
208
96
220
435
114
309
477
185
446
164
56
411
165
402
162
266
167
213
240
111
176
397
389
414
451
467
192
210
93
